32      4       
10      10      10      10      
0       0       0       0       0       14      2       3       4       5       6       7       8       9       10      11      13      16      17      18      
8       1       1       1       0       9       12      19      20      21      23      24      26      27      28      
10      0       6       4       1       8       14      19      20      21      23      24      26      28      
6       0       3       3       3       7       12      19      20      21      26      27      29      
10      3       0       2       6       7       19      21      22      23      24      29      31      
5       6       6       0       5       6       19      20      22      24      25      26      
1       3       4       0       5       5       20      21      24      25      30      
6       3       5       6       0       4       19      21      24      29      
1       5       1       2       0       3       15      22      25      
10      2       0       5       3       3       19      23      28      
6       4       2       0       6       3       19      20      23      
1       8       6       0       5       2       22      25      
7       4       9       0       4       2       19      21      
9       7       2       6       0       1       27      
8       7       5       0       3       1       19      
5       2       6       0       5       1       23      
5       0       4       5       5       1       22      
6       4       1       0       4       1       20      
6       4       3       5       0       1       32      
3       2       2       3       0       1       32      
5       5       4       8       0       1       32      
10      3       3       6       0       1       32      
9       5       0       3       10      1       32      
8       5       0       3       2       1       32      
1       0       3       4       1       1       32      
2       3       0       2       7       1       32      
5       3       5       0       4       1       32      
5       4       5       0       2       1       32      
5       2       4       0       3       1       32      
9       5       6       0       2       1       32      
8       0       4       4       2       1       32      
0       0       0       0       0       0       
